c File: flat200_3_0.col
c
c SOURCE: Joseph Culberson (joe@cs.ualberta.ca)
c DESCRIPTION: Quasi-random coloring problem
c              generated with flatness = 0
c                             probability = 0.036
c                             known coloring = 3
c                             random seed = 1025
c              Creation Date:  Wed Feb 24 10:39:43 1999
c Maximum degree = 8 Minimum degree = 0
c COLOR VERIFICATION: Using the permuted order
c under simple greedy yields the specified
c coloring number
c Color = 3 specified partitions = 3
c p edge 200 479
c cnf created by edge2cnf
p cnf 600 2237
-1 -2 0
-1 -3 0
-2 -3 0
1 2 3 0
-4 -5 0
-4 -6 0
-5 -6 0
4 5 6 0
-7 -8 0
-7 -9 0
-8 -9 0
7 8 9 0
-10 -11 0
-10 -12 0
-11 -12 0
10 11 12 0
-13 -14 0
-13 -15 0
-14 -15 0
13 14 15 0
-16 -17 0
-16 -18 0
-17 -18 0
16 17 18 0
-19 -20 0
-19 -21 0
-20 -21 0
19 20 21 0
-22 -23 0
-22 -24 0
-23 -24 0
22 23 24 0
-25 -26 0
-25 -27 0
-26 -27 0
25 26 27 0
-28 -29 0
-28 -30 0
-29 -30 0
28 29 30 0
-31 -32 0
-31 -33 0
-32 -33 0
31 32 33 0
-34 -35 0
-34 -36 0
-35 -36 0
34 35 36 0
-37 -38 0
-37 -39 0
-38 -39 0
37 38 39 0
-40 -41 0
-40 -42 0
-41 -42 0
40 41 42 0
-43 -44 0
-43 -45 0
-44 -45 0
43 44 45 0
-46 -47 0
-46 -48 0
-47 -48 0
46 47 48 0
-49 -50 0
-49 -51 0
-50 -51 0
49 50 51 0
-52 -53 0
-52 -54 0
-53 -54 0
52 53 54 0
-55 -56 0
-55 -57 0
-56 -57 0
55 56 57 0
-58 -59 0
-58 -60 0
-59 -60 0
58 59 60 0
-61 -62 0
-61 -63 0
-62 -63 0
61 62 63 0
-64 -65 0
-64 -66 0
-65 -66 0
64 65 66 0
-67 -68 0
-67 -69 0
-68 -69 0
67 68 69 0
-70 -71 0
-70 -72 0
-71 -72 0
70 71 72 0
-73 -74 0
-73 -75 0
-74 -75 0
73 74 75 0
-76 -77 0
-76 -78 0
-77 -78 0
76 77 78 0
-79 -80 0
-79 -81 0
-80 -81 0
79 80 81 0
-82 -83 0
-82 -84 0
-83 -84 0
82 83 84 0
-85 -86 0
-85 -87 0
-86 -87 0
85 86 87 0
-88 -89 0
-88 -90 0
-89 -90 0
88 89 90 0
-91 -92 0
-91 -93 0
-92 -93 0
91 92 93 0
-94 -95 0
-94 -96 0
-95 -96 0
94 95 96 0
-97 -98 0
-97 -99 0
-98 -99 0
97 98 99 0
-100 -101 0
-100 -102 0
-101 -102 0
100 101 102 0
-103 -104 0
-103 -105 0
-104 -105 0
103 104 105 0
-106 -107 0
-106 -108 0
-107 -108 0
106 107 108 0
-109 -110 0
-109 -111 0
-110 -111 0
109 110 111 0
-112 -113 0
-112 -114 0
-113 -114 0
112 113 114 0
-115 -116 0
-115 -117 0
-116 -117 0
115 116 117 0
-118 -119 0
-118 -120 0
-119 -120 0
118 119 120 0
-121 -122 0
-121 -123 0
-122 -123 0
121 122 123 0
-124 -125 0
-124 -126 0
-125 -126 0
124 125 126 0
-127 -128 0
-127 -129 0
-128 -129 0
127 128 129 0
-130 -131 0
-130 -132 0
-131 -132 0
130 131 132 0
-133 -134 0
-133 -135 0
-134 -135 0
133 134 135 0
-136 -137 0
-136 -138 0
-137 -138 0
136 137 138 0
-139 -140 0
-139 -141 0
-140 -141 0
139 140 141 0
-142 -143 0
-142 -144 0
-143 -144 0
142 143 144 0
-145 -146 0
-145 -147 0
-146 -147 0
145 146 147 0
-148 -149 0
-148 -150 0
-149 -150 0
148 149 150 0
-151 -152 0
-151 -153 0
-152 -153 0
151 152 153 0
-154 -155 0
-154 -156 0
-155 -156 0
154 155 156 0
-157 -158 0
-157 -159 0
-158 -159 0
157 158 159 0
-160 -161 0
-160 -162 0
-161 -162 0
160 161 162 0
-163 -164 0
-163 -165 0
-164 -165 0
163 164 165 0
-166 -167 0
-166 -168 0
-167 -168 0
166 167 168 0
-169 -170 0
-169 -171 0
-170 -171 0
169 170 171 0
-172 -173 0
-172 -174 0
-173 -174 0
172 173 174 0
-175 -176 0
-175 -177 0
-176 -177 0
175 176 177 0
-178 -179 0
-178 -180 0
-179 -180 0
178 179 180 0
-181 -182 0
-181 -183 0
-182 -183 0
181 182 183 0
-184 -185 0
-184 -186 0
-185 -186 0
184 185 186 0
-187 -188 0
-187 -189 0
-188 -189 0
187 188 189 0
-190 -191 0
-190 -192 0
-191 -192 0
190 191 192 0
-193 -194 0
-193 -195 0
-194 -195 0
193 194 195 0
-196 -197 0
-196 -198 0
-197 -198 0
196 197 198 0
-199 -200 0
-199 -201 0
-200 -201 0
199 200 201 0
-202 -203 0
-202 -204 0
-203 -204 0
202 203 204 0
-205 -206 0
-205 -207 0
-206 -207 0
205 206 207 0
-208 -209 0
-208 -210 0
-209 -210 0
208 209 210 0
-211 -212 0
-211 -213 0
-212 -213 0
211 212 213 0
-214 -215 0
-214 -216 0
-215 -216 0
214 215 216 0
-217 -218 0
-217 -219 0
-218 -219 0
217 218 219 0
-220 -221 0
-220 -222 0
-221 -222 0
220 221 222 0
-223 -224 0
-223 -225 0
-224 -225 0
223 224 225 0
-226 -227 0
-226 -228 0
-227 -228 0
226 227 228 0
-229 -230 0
-229 -231 0
-230 -231 0
229 230 231 0
-232 -233 0
-232 -234 0
-233 -234 0
232 233 234 0
-235 -236 0
-235 -237 0
-236 -237 0
235 236 237 0
-238 -239 0
-238 -240 0
-239 -240 0
238 239 240 0
-241 -242 0
-241 -243 0
-242 -243 0
241 242 243 0
-244 -245 0
-244 -246 0
-245 -246 0
244 245 246 0
-247 -248 0
-247 -249 0
-248 -249 0
247 248 249 0
-250 -251 0
-250 -252 0
-251 -252 0
250 251 252 0
-253 -254 0
-253 -255 0
-254 -255 0
253 254 255 0
-256 -257 0
-256 -258 0
-257 -258 0
256 257 258 0
-259 -260 0
-259 -261 0
-260 -261 0
259 260 261 0
-262 -263 0
-262 -264 0
-263 -264 0
262 263 264 0
-265 -266 0
-265 -267 0
-266 -267 0
265 266 267 0
-268 -269 0
-268 -270 0
-269 -270 0
268 269 270 0
-271 -272 0
-271 -273 0
-272 -273 0
271 272 273 0
-274 -275 0
-274 -276 0
-275 -276 0
274 275 276 0
-277 -278 0
-277 -279 0
-278 -279 0
277 278 279 0
-280 -281 0
-280 -282 0
-281 -282 0
280 281 282 0
-283 -284 0
-283 -285 0
-284 -285 0
283 284 285 0
-286 -287 0
-286 -288 0
-287 -288 0
286 287 288 0
-289 -290 0
-289 -291 0
-290 -291 0
289 290 291 0
-292 -293 0
-292 -294 0
-293 -294 0
292 293 294 0
-295 -296 0
-295 -297 0
-296 -297 0
295 296 297 0
-298 -299 0
-298 -300 0
-299 -300 0
298 299 300 0
-301 -302 0
-301 -303 0
-302 -303 0
301 302 303 0
-304 -305 0
-304 -306 0
-305 -306 0
304 305 306 0
-307 -308 0
-307 -309 0
-308 -309 0
307 308 309 0
-310 -311 0
-310 -312 0
-311 -312 0
310 311 312 0
-313 -314 0
-313 -315 0
-314 -315 0
313 314 315 0
-316 -317 0
-316 -318 0
-317 -318 0
316 317 318 0
-319 -320 0
-319 -321 0
-320 -321 0
319 320 321 0
-322 -323 0
-322 -324 0
-323 -324 0
322 323 324 0
-325 -326 0
-325 -327 0
-326 -327 0
325 326 327 0
-328 -329 0
-328 -330 0
-329 -330 0
328 329 330 0
-331 -332 0
-331 -333 0
-332 -333 0
331 332 333 0
-334 -335 0
-334 -336 0
-335 -336 0
334 335 336 0
-337 -338 0
-337 -339 0
-338 -339 0
337 338 339 0
-340 -341 0
-340 -342 0
-341 -342 0
340 341 342 0
-343 -344 0
-343 -345 0
-344 -345 0
343 344 345 0
-346 -347 0
-346 -348 0
-347 -348 0
346 347 348 0
-349 -350 0
-349 -351 0
-350 -351 0
349 350 351 0
-352 -353 0
-352 -354 0
-353 -354 0
352 353 354 0
-355 -356 0
-355 -357 0
-356 -357 0
355 356 357 0
-358 -359 0
-358 -360 0
-359 -360 0
358 359 360 0
-361 -362 0
-361 -363 0
-362 -363 0
361 362 363 0
-364 -365 0
-364 -366 0
-365 -366 0
364 365 366 0
-367 -368 0
-367 -369 0
-368 -369 0
367 368 369 0
-370 -371 0
-370 -372 0
-371 -372 0
370 371 372 0
-373 -374 0
-373 -375 0
-374 -375 0
373 374 375 0
-376 -377 0
-376 -378 0
-377 -378 0
376 377 378 0
-379 -380 0
-379 -381 0
-380 -381 0
379 380 381 0
-382 -383 0
-382 -384 0
-383 -384 0
382 383 384 0
-385 -386 0
-385 -387 0
-386 -387 0
385 386 387 0
-388 -389 0
-388 -390 0
-389 -390 0
388 389 390 0
-391 -392 0
-391 -393 0
-392 -393 0
391 392 393 0
-394 -395 0
-394 -396 0
-395 -396 0
394 395 396 0
-397 -398 0
-397 -399 0
-398 -399 0
397 398 399 0
-400 -401 0
-400 -402 0
-401 -402 0
400 401 402 0
-403 -404 0
-403 -405 0
-404 -405 0
403 404 405 0
-406 -407 0
-406 -408 0
-407 -408 0
406 407 408 0
-409 -410 0
-409 -411 0
-410 -411 0
409 410 411 0
-412 -413 0
-412 -414 0
-413 -414 0
412 413 414 0
-415 -416 0
-415 -417 0
-416 -417 0
415 416 417 0
-418 -419 0
-418 -420 0
-419 -420 0
418 419 420 0
-421 -422 0
-421 -423 0
-422 -423 0
421 422 423 0
-424 -425 0
-424 -426 0
-425 -426 0
424 425 426 0
-427 -428 0
-427 -429 0
-428 -429 0
427 428 429 0
-430 -431 0
-430 -432 0
-431 -432 0
430 431 432 0
-433 -434 0
-433 -435 0
-434 -435 0
433 434 435 0
-436 -437 0
-436 -438 0
-437 -438 0
436 437 438 0
-439 -440 0
-439 -441 0
-440 -441 0
439 440 441 0
-442 -443 0
-442 -444 0
-443 -444 0
442 443 444 0
-445 -446 0
-445 -447 0
-446 -447 0
445 446 447 0
-448 -449 0
-448 -450 0
-449 -450 0
448 449 450 0
-451 -452 0
-451 -453 0
-452 -453 0
451 452 453 0
-454 -455 0
-454 -456 0
-455 -456 0
454 455 456 0
-457 -458 0
-457 -459 0
-458 -459 0
457 458 459 0
-460 -461 0
-460 -462 0
-461 -462 0
460 461 462 0
-463 -464 0
-463 -465 0
-464 -465 0
463 464 465 0
-466 -467 0
-466 -468 0
-467 -468 0
466 467 468 0
-469 -470 0
-469 -471 0
-470 -471 0
469 470 471 0
-472 -473 0
-472 -474 0
-473 -474 0
472 473 474 0
-475 -476 0
-475 -477 0
-476 -477 0
475 476 477 0
-478 -479 0
-478 -480 0
-479 -480 0
478 479 480 0
-481 -482 0
-481 -483 0
-482 -483 0
481 482 483 0
-484 -485 0
-484 -486 0
-485 -486 0
484 485 486 0
-487 -488 0
-487 -489 0
-488 -489 0
487 488 489 0
-490 -491 0
-490 -492 0
-491 -492 0
490 491 492 0
-493 -494 0
-493 -495 0
-494 -495 0
493 494 495 0
-496 -497 0
-496 -498 0
-497 -498 0
496 497 498 0
-499 -500 0
-499 -501 0
-500 -501 0
499 500 501 0
-502 -503 0
-502 -504 0
-503 -504 0
502 503 504 0
-505 -506 0
-505 -507 0
-506 -507 0
505 506 507 0
-508 -509 0
-508 -510 0
-509 -510 0
508 509 510 0
-511 -512 0
-511 -513 0
-512 -513 0
511 512 513 0
-514 -515 0
-514 -516 0
-515 -516 0
514 515 516 0
-517 -518 0
-517 -519 0
-518 -519 0
517 518 519 0
-520 -521 0
-520 -522 0
-521 -522 0
520 521 522 0
-523 -524 0
-523 -525 0
-524 -525 0
523 524 525 0
-526 -527 0
-526 -528 0
-527 -528 0
526 527 528 0
-529 -530 0
-529 -531 0
-530 -531 0
529 530 531 0
-532 -533 0
-532 -534 0
-533 -534 0
532 533 534 0
-535 -536 0
-535 -537 0
-536 -537 0
535 536 537 0
-538 -539 0
-538 -540 0
-539 -540 0
538 539 540 0
-541 -542 0
-541 -543 0
-542 -543 0
541 542 543 0
-544 -545 0
-544 -546 0
-545 -546 0
544 545 546 0
-547 -548 0
-547 -549 0
-548 -549 0
547 548 549 0
-550 -551 0
-550 -552 0
-551 -552 0
550 551 552 0
-553 -554 0
-553 -555 0
-554 -555 0
553 554 555 0
-556 -557 0
-556 -558 0
-557 -558 0
556 557 558 0
-559 -560 0
-559 -561 0
-560 -561 0
559 560 561 0
-562 -563 0
-562 -564 0
-563 -564 0
562 563 564 0
-565 -566 0
-565 -567 0
-566 -567 0
565 566 567 0
-568 -569 0
-568 -570 0
-569 -570 0
568 569 570 0
-571 -572 0
-571 -573 0
-572 -573 0
571 572 573 0
-574 -575 0
-574 -576 0
-575 -576 0
574 575 576 0
-577 -578 0
-577 -579 0
-578 -579 0
577 578 579 0
-580 -581 0
-580 -582 0
-581 -582 0
580 581 582 0
-583 -584 0
-583 -585 0
-584 -585 0
583 584 585 0
-586 -587 0
-586 -588 0
-587 -588 0
586 587 588 0
-589 -590 0
-589 -591 0
-590 -591 0
589 590 591 0
-592 -593 0
-592 -594 0
-593 -594 0
592 593 594 0
-595 -596 0
-595 -597 0
-596 -597 0
595 596 597 0
-598 -599 0
-598 -600 0
-599 -600 0
598 599 600 0
-262 -1 0
-263 -2 0
-264 -3 0
-448 -1 0
-449 -2 0
-450 -3 0
-505 -1 0
-506 -2 0
-507 -3 0
-37 -4 0
-38 -5 0
-39 -6 0
-127 -4 0
-128 -5 0
-129 -6 0
-421 -4 0
-422 -5 0
-423 -6 0
-433 -4 0
-434 -5 0
-435 -6 0
-454 -4 0
-455 -5 0
-456 -6 0
-76 -7 0
-77 -8 0
-78 -9 0
-139 -7 0
-140 -8 0
-141 -9 0
-211 -7 0
-212 -8 0
-213 -9 0
-283 -7 0
-284 -8 0
-285 -9 0
-448 -7 0
-449 -8 0
-450 -9 0
-553 -7 0
-554 -8 0
-555 -9 0
-577 -7 0
-578 -8 0
-579 -9 0
-130 -10 0
-131 -11 0
-132 -12 0
-475 -10 0
-476 -11 0
-477 -12 0
-517 -10 0
-518 -11 0
-519 -12 0
-526 -10 0
-527 -11 0
-528 -12 0
-544 -10 0
-545 -11 0
-546 -12 0
-550 -10 0
-551 -11 0
-552 -12 0
-592 -10 0
-593 -11 0
-594 -12 0
-88 -13 0
-89 -14 0
-90 -15 0
-91 -13 0
-92 -14 0
-93 -15 0
-103 -13 0
-104 -14 0
-105 -15 0
-139 -13 0
-140 -14 0
-141 -15 0
-265 -13 0
-266 -14 0
-267 -15 0
-586 -13 0
-587 -14 0
-588 -15 0
-169 -16 0
-170 -17 0
-171 -18 0
-187 -16 0
-188 -17 0
-189 -18 0
-400 -16 0
-401 -17 0
-402 -18 0
-427 -16 0
-428 -17 0
-429 -18 0
-562 -16 0
-563 -17 0
-564 -18 0
-595 -16 0
-596 -17 0
-597 -18 0
-295 -19 0
-296 -20 0
-297 -21 0
-328 -19 0
-329 -20 0
-330 -21 0
-367 -19 0
-368 -20 0
-369 -21 0
-385 -19 0
-386 -20 0
-387 -21 0
-424 -19 0
-425 -20 0
-426 -21 0
-82 -22 0
-83 -23 0
-84 -24 0
-403 -22 0
-404 -23 0
-405 -24 0
-445 -22 0
-446 -23 0
-447 -24 0
-478 -22 0
-479 -23 0
-480 -24 0
-505 -22 0
-506 -23 0
-507 -24 0
-559 -22 0
-560 -23 0
-561 -24 0
-70 -25 0
-71 -26 0
-72 -27 0
-460 -25 0
-461 -26 0
-462 -27 0
-478 -25 0
-479 -26 0
-480 -27 0
-565 -25 0
-566 -26 0
-567 -27 0
-574 -25 0
-575 -26 0
-576 -27 0
-421 -28 0
-422 -29 0
-423 -30 0
-448 -28 0
-449 -29 0
-450 -30 0
-163 -31 0
-164 -32 0
-165 -33 0
-232 -31 0
-233 -32 0
-234 -33 0
-346 -31 0
-347 -32 0
-348 -33 0
-427 -31 0
-428 -32 0
-429 -33 0
-463 -31 0
-464 -32 0
-465 -33 0
-517 -31 0
-518 -32 0
-519 -33 0
-547 -31 0
-548 -32 0
-549 -33 0
-595 -31 0
-596 -32 0
-597 -33 0
-181 -34 0
-182 -35 0
-183 -36 0
-481 -34 0
-482 -35 0
-483 -36 0
-541 -34 0
-542 -35 0
-543 -36 0
-556 -34 0
-557 -35 0
-558 -36 0
-565 -34 0
-566 -35 0
-567 -36 0
-97 -37 0
-98 -38 0
-99 -39 0
-169 -37 0
-170 -38 0
-171 -39 0
-235 -37 0
-236 -38 0
-237 -39 0
-361 -37 0
-362 -38 0
-363 -39 0
-493 -37 0
-494 -38 0
-495 -39 0
-565 -37 0
-566 -38 0
-567 -39 0
-91 -40 0
-92 -41 0
-93 -42 0
-481 -40 0
-482 -41 0
-483 -42 0
-499 -40 0
-500 -41 0
-501 -42 0
-118 -43 0
-119 -44 0
-120 -45 0
-145 -43 0
-146 -44 0
-147 -45 0
-514 -43 0
-515 -44 0
-516 -45 0
-361 -46 0
-362 -47 0
-363 -48 0
-382 -46 0
-383 -47 0
-384 -48 0
-502 -46 0
-503 -47 0
-504 -48 0
-532 -46 0
-533 -47 0
-534 -48 0
-199 -49 0
-200 -50 0
-201 -51 0
-232 -49 0
-233 -50 0
-234 -51 0
-244 -49 0
-245 -50 0
-246 -51 0
-250 -49 0
-251 -50 0
-252 -51 0
-589 -49 0
-590 -50 0
-591 -51 0
-67 -52 0
-68 -53 0
-69 -54 0
-172 -52 0
-173 -53 0
-174 -54 0
-289 -52 0
-290 -53 0
-291 -54 0
-130 -55 0
-131 -56 0
-132 -57 0
-151 -55 0
-152 -56 0
-153 -57 0
-268 -55 0
-269 -56 0
-270 -57 0
-391 -55 0
-392 -56 0
-393 -57 0
-469 -55 0
-470 -56 0
-471 -57 0
-514 -55 0
-515 -56 0
-516 -57 0
-592 -55 0
-593 -56 0
-594 -57 0
-70 -58 0
-71 -59 0
-72 -60 0
-91 -58 0
-92 -59 0
-93 -60 0
-106 -58 0
-107 -59 0
-108 -60 0
-304 -58 0
-305 -59 0
-306 -60 0
-298 -61 0
-299 -62 0
-300 -63 0
-313 -61 0
-314 -62 0
-315 -63 0
-316 -61 0
-317 -62 0
-318 -63 0
-550 -61 0
-551 -62 0
-552 -63 0
-586 -61 0
-587 -62 0
-588 -63 0
-193 -64 0
-194 -65 0
-195 -66 0
-283 -64 0
-284 -65 0
-285 -66 0
-343 -64 0
-344 -65 0
-345 -66 0
-355 -64 0
-356 -65 0
-357 -66 0
-361 -64 0
-362 -65 0
-363 -66 0
-481 -64 0
-482 -65 0
-483 -66 0
-568 -64 0
-569 -65 0
-570 -66 0
-229 -67 0
-230 -68 0
-231 -69 0
-244 -67 0
-245 -68 0
-246 -69 0
-349 -67 0
-350 -68 0
-351 -69 0
-361 -67 0
-362 -68 0
-363 -69 0
-475 -67 0
-476 -68 0
-477 -69 0
-550 -67 0
-551 -68 0
-552 -69 0
-121 -70 0
-122 -71 0
-123 -72 0
-370 -70 0
-371 -71 0
-372 -72 0
-451 -70 0
-452 -71 0
-453 -72 0
-163 -73 0
-164 -74 0
-165 -75 0
-241 -73 0
-242 -74 0
-243 -75 0
-292 -73 0
-293 -74 0
-294 -75 0
-583 -73 0
-584 -74 0
-585 -75 0
-151 -76 0
-152 -77 0
-153 -78 0
-295 -76 0
-296 -77 0
-297 -78 0
-310 -76 0
-311 -77 0
-312 -78 0
-154 -82 0
-155 -83 0
-156 -84 0
-199 -82 0
-200 -83 0
-201 -84 0
-205 -82 0
-206 -83 0
-207 -84 0
-316 -82 0
-317 -83 0
-318 -84 0
-397 -82 0
-398 -83 0
-399 -84 0
-247 -85 0
-248 -86 0
-249 -87 0
-259 -85 0
-260 -86 0
-261 -87 0
-298 -85 0
-299 -86 0
-300 -87 0
-316 -85 0
-317 -86 0
-318 -87 0
-457 -85 0
-458 -86 0
-459 -87 0
-586 -85 0
-587 -86 0
-588 -87 0
-112 -88 0
-113 -89 0
-114 -90 0
-202 -88 0
-203 -89 0
-204 -90 0
-364 -88 0
-365 -89 0
-366 -90 0
-484 -88 0
-485 -89 0
-486 -90 0
-556 -88 0
-557 -89 0
-558 -90 0
-562 -88 0
-563 -89 0
-564 -90 0
-322 -91 0
-323 -92 0
-324 -93 0
-412 -91 0
-413 -92 0
-414 -93 0
-424 -91 0
-425 -92 0
-426 -93 0
-592 -91 0
-593 -92 0
-594 -93 0
-286 -94 0
-287 -95 0
-288 -96 0
-307 -94 0
-308 -95 0
-309 -96 0
-349 -94 0
-350 -95 0
-351 -96 0
-397 -94 0
-398 -95 0
-399 -96 0
-274 -97 0
-275 -98 0
-276 -99 0
-502 -97 0
-503 -98 0
-504 -99 0
-175 -100 0
-176 -101 0
-177 -102 0
-361 -100 0
-362 -101 0
-363 -102 0
-406 -100 0
-407 -101 0
-408 -102 0
-451 -100 0
-452 -101 0
-453 -102 0
-490 -100 0
-491 -101 0
-492 -102 0
-274 -103 0
-275 -104 0
-276 -105 0
-328 -103 0
-329 -104 0
-330 -105 0
-127 -106 0
-128 -107 0
-129 -108 0
-169 -106 0
-170 -107 0
-171 -108 0
-349 -106 0
-350 -107 0
-351 -108 0
-415 -106 0
-416 -107 0
-417 -108 0
-454 -106 0
-455 -107 0
-456 -108 0
-196 -109 0
-197 -110 0
-198 -111 0
-238 -109 0
-239 -110 0
-240 -111 0
-508 -109 0
-509 -110 0
-510 -111 0
-235 -112 0
-236 -113 0
-237 -114 0
-346 -112 0
-347 -113 0
-348 -114 0
-397 -112 0
-398 -113 0
-399 -114 0
-472 -112 0
-473 -113 0
-474 -114 0
-142 -115 0
-143 -116 0
-144 -117 0
-178 -115 0
-179 -116 0
-180 -117 0
-265 -115 0
-266 -116 0
-267 -117 0
-328 -115 0
-329 -116 0
-330 -117 0
-340 -115 0
-341 -116 0
-342 -117 0
-139 -118 0
-140 -119 0
-141 -120 0
-268 -118 0
-269 -119 0
-270 -120 0
-271 -118 0
-272 -119 0
-273 -120 0
-313 -118 0
-314 -119 0
-315 -120 0
-421 -118 0
-422 -119 0
-423 -120 0
-520 -118 0
-521 -119 0
-522 -120 0
-589 -118 0
-590 -119 0
-591 -120 0
-166 -121 0
-167 -122 0
-168 -123 0
-217 -121 0
-218 -122 0
-219 -123 0
-223 -121 0
-224 -122 0
-225 -123 0
-127 -124 0
-128 -125 0
-129 -126 0
-178 -124 0
-179 -125 0
-180 -126 0
-193 -124 0
-194 -125 0
-195 -126 0
-262 -124 0
-263 -125 0
-264 -126 0
-547 -124 0
-548 -125 0
-549 -126 0
-553 -124 0
-554 -125 0
-555 -126 0
-373 -127 0
-374 -128 0
-375 -129 0
-394 -127 0
-395 -128 0
-396 -129 0
-199 -130 0
-200 -131 0
-201 -132 0
-142 -133 0
-143 -134 0
-144 -135 0
-151 -133 0
-152 -134 0
-153 -135 0
-163 -133 0
-164 -134 0
-165 -135 0
-232 -133 0
-233 -134 0
-234 -135 0
-307 -133 0
-308 -134 0
-309 -135 0
-355 -133 0
-356 -134 0
-357 -135 0
-361 -133 0
-362 -134 0
-363 -135 0
-244 -136 0
-245 -137 0
-246 -138 0
-307 -136 0
-308 -137 0
-309 -138 0
-313 -136 0
-314 -137 0
-315 -138 0
-319 -136 0
-320 -137 0
-321 -138 0
-526 -136 0
-527 -137 0
-528 -138 0
-259 -139 0
-260 -140 0
-261 -141 0
-307 -139 0
-308 -140 0
-309 -141 0
-334 -139 0
-335 -140 0
-336 -141 0
-382 -139 0
-383 -140 0
-384 -141 0
-553 -139 0
-554 -140 0
-555 -141 0
-172 -142 0
-173 -143 0
-174 -144 0
-190 -142 0
-191 -143 0
-192 -144 0
-538 -142 0
-539 -143 0
-540 -144 0
-598 -142 0
-599 -143 0
-600 -144 0
-298 -145 0
-299 -146 0
-300 -147 0
-391 -145 0
-392 -146 0
-393 -147 0
-556 -145 0
-557 -146 0
-558 -147 0
-589 -145 0
-590 -146 0
-591 -147 0
-232 -148 0
-233 -149 0
-234 -150 0
-331 -148 0
-332 -149 0
-333 -150 0
-373 -148 0
-374 -149 0
-375 -150 0
-406 -148 0
-407 -149 0
-408 -150 0
-541 -148 0
-542 -149 0
-543 -150 0
-553 -148 0
-554 -149 0
-555 -150 0
-436 -151 0
-437 -152 0
-438 -153 0
-181 -154 0
-182 -155 0
-183 -156 0
-247 -154 0
-248 -155 0
-249 -156 0
-430 -154 0
-431 -155 0
-432 -156 0
-595 -154 0
-596 -155 0
-597 -156 0
-487 -157 0
-488 -158 0
-489 -159 0
-499 -157 0
-500 -158 0
-501 -159 0
-214 -160 0
-215 -161 0
-216 -162 0
-250 -160 0
-251 -161 0
-252 -162 0
-319 -163 0
-320 -164 0
-321 -165 0
-460 -166 0
-461 -167 0
-462 -168 0
-523 -166 0
-524 -167 0
-525 -168 0
-283 -169 0
-284 -170 0
-285 -171 0
-331 -169 0
-332 -170 0
-333 -171 0
-373 -169 0
-374 -170 0
-375 -171 0
-577 -169 0
-578 -170 0
-579 -171 0
-598 -169 0
-599 -170 0
-600 -171 0
-454 -172 0
-455 -173 0
-456 -174 0
-556 -172 0
-557 -173 0
-558 -174 0
-304 -175 0
-305 -176 0
-306 -177 0
-424 -175 0
-425 -176 0
-426 -177 0
-574 -175 0
-575 -176 0
-576 -177 0
-406 -178 0
-407 -179 0
-408 -180 0
-328 -181 0
-329 -182 0
-330 -183 0
-550 -181 0
-551 -182 0
-552 -183 0
-586 -181 0
-587 -182 0
-588 -183 0
-433 -184 0
-434 -185 0
-435 -186 0
-448 -184 0
-449 -185 0
-450 -186 0
-592 -184 0
-593 -185 0
-594 -186 0
-319 -187 0
-320 -188 0
-321 -189 0
-352 -187 0
-353 -188 0
-354 -189 0
-475 -187 0
-476 -188 0
-477 -189 0
-493 -187 0
-494 -188 0
-495 -189 0
-514 -187 0
-515 -188 0
-516 -189 0
-202 -190 0
-203 -191 0
-204 -192 0
-430 -190 0
-431 -191 0
-432 -192 0
-250 -193 0
-251 -194 0
-252 -195 0
-253 -193 0
-254 -194 0
-255 -195 0
-340 -193 0
-341 -194 0
-342 -195 0
-445 -193 0
-446 -194 0
-447 -195 0
-265 -196 0
-266 -197 0
-267 -198 0
-385 -196 0
-386 -197 0
-387 -198 0
-427 -196 0
-428 -197 0
-429 -198 0
-430 -196 0
-431 -197 0
-432 -198 0
-424 -199 0
-425 -200 0
-426 -201 0
-436 -199 0
-437 -200 0
-438 -201 0
-574 -199 0
-575 -200 0
-576 -201 0
-292 -202 0
-293 -203 0
-294 -204 0
-409 -202 0
-410 -203 0
-411 -204 0
-538 -205 0
-539 -206 0
-540 -207 0
-559 -205 0
-560 -206 0
-561 -207 0
-352 -208 0
-353 -209 0
-354 -210 0
-511 -208 0
-512 -209 0
-513 -210 0
-433 -211 0
-434 -212 0
-435 -213 0
-508 -211 0
-509 -212 0
-510 -213 0
-511 -211 0
-512 -212 0
-513 -213 0
-514 -211 0
-515 -212 0
-516 -213 0
-541 -211 0
-542 -212 0
-543 -213 0
-433 -214 0
-434 -215 0
-435 -216 0
-562 -214 0
-563 -215 0
-564 -216 0
-238 -217 0
-239 -218 0
-240 -219 0
-322 -217 0
-323 -218 0
-324 -219 0
-463 -217 0
-464 -218 0
-465 -219 0
-517 -217 0
-518 -218 0
-519 -219 0
-301 -220 0
-302 -221 0
-303 -222 0
-316 -220 0
-317 -221 0
-318 -222 0
-349 -220 0
-350 -221 0
-351 -222 0
-412 -220 0
-413 -221 0
-414 -222 0
-418 -220 0
-419 -221 0
-420 -222 0
-436 -220 0
-437 -221 0
-438 -222 0
-391 -223 0
-392 -224 0
-393 -225 0
-514 -223 0
-515 -224 0
-516 -225 0
-559 -223 0
-560 -224 0
-561 -225 0
-235 -226 0
-236 -227 0
-237 -228 0
-253 -226 0
-254 -227 0
-255 -228 0
-415 -229 0
-416 -230 0
-417 -231 0
-448 -229 0
-449 -230 0
-450 -231 0
-487 -229 0
-488 -230 0
-489 -231 0
-574 -229 0
-575 -230 0
-576 -231 0
-307 -232 0
-308 -233 0
-309 -234 0
-469 -232 0
-470 -233 0
-471 -234 0
-562 -232 0
-563 -233 0
-564 -234 0
-247 -235 0
-248 -236 0
-249 -237 0
-322 -235 0
-323 -236 0
-324 -237 0
-364 -235 0
-365 -236 0
-366 -237 0
-502 -235 0
-503 -236 0
-504 -237 0
-289 -238 0
-290 -239 0
-291 -240 0
-376 -238 0
-377 -239 0
-378 -240 0
-526 -238 0
-527 -239 0
-528 -240 0
-286 -241 0
-287 -242 0
-288 -243 0
-580 -244 0
-581 -245 0
-582 -246 0
-268 -247 0
-269 -248 0
-270 -249 0
-394 -247 0
-395 -248 0
-396 -249 0
-412 -247 0
-413 -248 0
-414 -249 0
-331 -250 0
-332 -251 0
-333 -252 0
-577 -250 0
-578 -251 0
-579 -252 0
-259 -253 0
-260 -254 0
-261 -255 0
-427 -253 0
-428 -254 0
-429 -255 0
-463 -253 0
-464 -254 0
-465 -255 0
-385 -256 0
-386 -257 0
-387 -258 0
-409 -256 0
-410 -257 0
-411 -258 0
-538 -256 0
-539 -257 0
-540 -258 0
-409 -259 0
-410 -260 0
-411 -261 0
-496 -259 0
-497 -260 0
-498 -261 0
-274 -262 0
-275 -263 0
-276 -264 0
-490 -265 0
-491 -266 0
-492 -267 0
-505 -265 0
-506 -266 0
-507 -267 0
-586 -265 0
-587 -266 0
-588 -267 0
-277 -268 0
-278 -269 0
-279 -270 0
-523 -268 0
-524 -269 0
-525 -270 0
-538 -268 0
-539 -269 0
-540 -270 0
-493 -271 0
-494 -272 0
-495 -273 0
-337 -274 0
-338 -275 0
-339 -276 0
-370 -274 0
-371 -275 0
-372 -276 0
-544 -274 0
-545 -275 0
-546 -276 0
-466 -277 0
-467 -278 0
-468 -279 0
-343 -280 0
-344 -281 0
-345 -282 0
-520 -280 0
-521 -281 0
-522 -282 0
-553 -280 0
-554 -281 0
-555 -282 0
-598 -280 0
-599 -281 0
-600 -282 0
-337 -286 0
-338 -287 0
-339 -288 0
-421 -286 0
-422 -287 0
-423 -288 0
-562 -286 0
-563 -287 0
-564 -288 0
-337 -289 0
-338 -290 0
-339 -291 0
-514 -289 0
-515 -290 0
-516 -291 0
-517 -292 0
-518 -293 0
-519 -294 0
-580 -292 0
-581 -293 0
-582 -294 0
-592 -292 0
-593 -293 0
-594 -294 0
-406 -295 0
-407 -296 0
-408 -297 0
-346 -298 0
-347 -299 0
-348 -300 0
-529 -298 0
-530 -299 0
-531 -300 0
-595 -298 0
-596 -299 0
-597 -300 0
-319 -301 0
-320 -302 0
-321 -303 0
-331 -301 0
-332 -302 0
-333 -303 0
-388 -301 0
-389 -302 0
-390 -303 0
-487 -301 0
-488 -302 0
-489 -303 0
-511 -307 0
-512 -308 0
-513 -309 0
-325 -310 0
-326 -311 0
-327 -312 0
-490 -313 0
-491 -314 0
-492 -315 0
-406 -316 0
-407 -317 0
-408 -318 0
-589 -316 0
-590 -317 0
-591 -318 0
-571 -319 0
-572 -320 0
-573 -321 0
-415 -322 0
-416 -323 0
-417 -324 0
-430 -322 0
-431 -323 0
-432 -324 0
-448 -322 0
-449 -323 0
-450 -324 0
-523 -322 0
-524 -323 0
-525 -324 0
-583 -322 0
-584 -323 0
-585 -324 0
-373 -325 0
-374 -326 0
-375 -327 0
-478 -325 0
-479 -326 0
-480 -327 0
-520 -325 0
-521 -326 0
-522 -327 0
-547 -325 0
-548 -326 0
-549 -327 0
-577 -325 0
-578 -326 0
-579 -327 0
-382 -328 0
-383 -329 0
-384 -330 0
-430 -328 0
-431 -329 0
-432 -330 0
-352 -331 0
-353 -332 0
-354 -333 0
-544 -331 0
-545 -332 0
-546 -333 0
-583 -331 0
-584 -332 0
-585 -333 0
-340 -334 0
-341 -335 0
-342 -336 0
-487 -334 0
-488 -335 0
-489 -336 0
-550 -334 0
-551 -335 0
-552 -336 0
-358 -337 0
-359 -338 0
-360 -339 0
-451 -337 0
-452 -338 0
-453 -339 0
-502 -337 0
-503 -338 0
-504 -339 0
-541 -337 0
-542 -338 0
-543 -339 0
-424 -340 0
-425 -341 0
-426 -342 0
-520 -343 0
-521 -344 0
-522 -345 0
-577 -343 0
-578 -344 0
-579 -345 0
-466 -346 0
-467 -347 0
-468 -348 0
-580 -346 0
-581 -347 0
-582 -348 0
-481 -349 0
-482 -350 0
-483 -351 0
-565 -349 0
-566 -350 0
-567 -351 0
-487 -352 0
-488 -353 0
-489 -354 0
-511 -352 0
-512 -353 0
-513 -354 0
-379 -355 0
-380 -356 0
-381 -357 0
-508 -355 0
-509 -356 0
-510 -357 0
-388 -358 0
-389 -359 0
-390 -360 0
-499 -358 0
-500 -359 0
-501 -360 0
-400 -361 0
-401 -362 0
-402 -363 0
-430 -361 0
-431 -362 0
-432 -363 0
-424 -364 0
-425 -365 0
-426 -366 0
-580 -364 0
-581 -365 0
-582 -366 0
-583 -364 0
-584 -365 0
-585 -366 0
-598 -364 0
-599 -365 0
-600 -366 0
-505 -367 0
-506 -368 0
-507 -369 0
-454 -373 0
-455 -374 0
-456 -375 0
-385 -376 0
-386 -377 0
-387 -378 0
-460 -376 0
-461 -377 0
-462 -378 0
-496 -376 0
-497 -377 0
-498 -378 0
-532 -379 0
-533 -380 0
-534 -381 0
-415 -382 0
-416 -383 0
-417 -384 0
-529 -382 0
-530 -383 0
-531 -384 0
-559 -382 0
-560 -383 0
-561 -384 0
-406 -388 0
-407 -389 0
-408 -390 0
-493 -388 0
-494 -389 0
-495 -390 0
-439 -391 0
-440 -392 0
-441 -393 0
-499 -391 0
-500 -392 0
-501 -393 0
-442 -394 0
-443 -395 0
-444 -396 0
-526 -397 0
-527 -398 0
-528 -399 0
-595 -397 0
-596 -398 0
-597 -399 0
-529 -403 0
-530 -404 0
-531 -405 0
-475 -409 0
-476 -410 0
-477 -411 0
-514 -409 0
-515 -410 0
-516 -411 0
-571 -412 0
-572 -413 0
-573 -414 0
-481 -415 0
-482 -416 0
-483 -417 0
-547 -415 0
-548 -416 0
-549 -417 0
-565 -415 0
-566 -416 0
-567 -417 0
-466 -421 0
-467 -422 0
-468 -423 0
-436 -424 0
-437 -425 0
-438 -426 0
-559 -430 0
-560 -431 0
-561 -432 0
-475 -433 0
-476 -434 0
-477 -435 0
-595 -433 0
-596 -434 0
-597 -435 0
-523 -436 0
-524 -437 0
-525 -438 0
-463 -439 0
-464 -440 0
-465 -441 0
-490 -439 0
-491 -440 0
-492 -441 0
-547 -442 0
-548 -443 0
-549 -444 0
-565 -442 0
-566 -443 0
-567 -444 0
-547 -445 0
-548 -446 0
-549 -447 0
-487 -448 0
-488 -449 0
-489 -450 0
-463 -451 0
-464 -452 0
-465 -453 0
-472 -451 0
-473 -452 0
-474 -453 0
-508 -451 0
-509 -452 0
-510 -453 0
-481 -454 0
-482 -455 0
-483 -456 0
-553 -457 0
-554 -458 0
-555 -459 0
-523 -463 0
-524 -464 0
-525 -465 0
-529 -475 0
-530 -476 0
-531 -477 0
-568 -475 0
-569 -476 0
-570 -477 0
-592 -475 0
-593 -476 0
-594 -477 0
-571 -478 0
-572 -479 0
-573 -480 0
-529 -481 0
-530 -482 0
-531 -483 0
-535 -487 0
-536 -488 0
-537 -489 0
-565 -487 0
-566 -488 0
-567 -489 0
-508 -490 0
-509 -491 0
-510 -492 0
-592 -490 0
-593 -491 0
-594 -492 0
-511 -499 0
-512 -500 0
-513 -501 0
-562 -499 0
-563 -500 0
-564 -501 0
-544 -502 0
-545 -503 0
-546 -504 0
-565 -502 0
-566 -503 0
-567 -504 0
-526 -505 0
-527 -506 0
-528 -507 0
-541 -514 0
-542 -515 0
-543 -516 0
-553 -517 0
-554 -518 0
-555 -519 0
-583 -517 0
-584 -518 0
-585 -519 0
-523 -520 0
-524 -521 0
-525 -522 0
-547 -523 0
-548 -524 0
-549 -525 0
-529 -526 0
-530 -527 0
-531 -528 0
-574 -529 0
-575 -530 0
-576 -531 0
-598 -529 0
-599 -530 0
-600 -531 0
-541 -532 0
-542 -533 0
-543 -534 0
-556 -538 0
-557 -539 0
-558 -540 0
-580 -547 0
-581 -548 0
-582 -549 0
-595 -589 0
-596 -590 0
-597 -591 0
